100
102
34 2
27 1
39 3
48 2
17 1
35 2
44 3
21 2
35 1
45 4
25 1
30 1
45 4
26 1
29 2
48 2
19 1
33 1
37 2
22 2
41 2
45 3
23 1
32 3
39 2
20 1
41 3
36 2
24 2
40 3
44 3
19 1
37 3
35 2
27 1
38 3
40 3
28 2
32 2
48 2
22 1
30 2
42 3
19 1
39 2
36 3
28 1
36 2
38 2
30 2
32 1
45 3
19 1
36 3
33 1
25 1
42 2
45 2
21 1
34 2
39 3
21 1
40 2
40 3
24 2
36 2
43 3
20 1
37 3
38 3
27 2
35 1
41 2
26 2
33 2
41 2
20 1
39 2
42 3
26 1
32 3
44 2
27 1
29 2
38 1
27 2
35 3
36 2
25 1
39 2
46 2
21 1
33 2
41 2
22 1
37 2
40 2
22 1
38 2
42 2
24 2
34 2
